 Code  2931
 Dimension, Fixed Cost
   100        3000
 Facility, Client, Transportation Cost
     1        7           0
     1       12           2
     1       15           2
     1       22           3
     1       52           1
     1       53           3
     1       54           1
     1       59           0
     1       72           1
     1       93           4
     2       17           1
     2       23           1
     2       42           1
     2       45           3
     2       58           2
     2       62           0
     2       70           1
     2       75           4
     2       92           0
     2       98           0
     3        7           3
     3       10           2
     3       21           2
     3       35           2
     3       45           1
     3       54           4
     3       55           4
     3       68           0
     3       83           2
     3       95           3
     4       11           1
     4       29           0
     4       31           0
     4       39           4
     4       43           3
     4       55           2
     4       58           1
     4       60           3
     4       67           3
     4       86           2
     5        2           3
     5       19           2
     5       46           0
     5       70           3
     5       73           3
     5       77           1
     5       79           4
     5       80           2
     5       97           1
     5       98           1
     6        1           3
     6        2           2
     6       15           4
     6       35           1
     6       47           2
     6       57           1
     6       59           0
     6       74           4
     6       78           3
     6       87           0
     7        3           3
     7        7           1
     7       19           0
     7       24           1
     7       30           2
     7       35           4
     7       41           0
     7       55           0
     7       56           3
     7       69           0
     8        9           3
     8       16           2
     8       26           1
     8       31           1
     8       33           0
     8       48           0
     8       74           3
     8       82           0
     8       88           3
     8       99           2
     9        8           4
     9        9           3
     9       25           0
     9       32           4
     9       36           0
     9       38           3
     9       43           2
     9       76           3
     9       87           3
     9       99           4
    10       18           1
    10       39           4
    10       42           4
    10       43           4
    10       55           3
    10       58           4
    10       67           2
    10       69           3
    10       83           0
    10       95           0
    11        1           3
    11        2           4
    11       11           4
    11       42           4
    11       43           4
    11       64           0
    11       67           1
    11       68           4
    11       83           3
    11       95           2
    12       15           0
    12       17           3
    12       21           4
    12       23           2
    12       34           4
    12       51           1
    12       75           1
    12       81           1
    12       83           0
    12       84           3
    13        1           0
    13       21           2
    13       24           1
    13       32           1
    13       37           1
    13       52           0
    13       57           4
    13       61           2
    13       62           0
    13       75           2
    14        2           3
    14       16           0
    14       18           3
    14       19           2
    14       27           2
    14       58           4
    14       71           4
    14       87           2
    14       90           3
    14      100           1
    15       29           2
    15       42           3
    15       50           0
    15       60           3
    15       65           2
    15       69           3
    15       80           1
    15       84           1
    15       93           3
    15       98           2
    16        3           0
    16       23           3
    16       25           0
    16       33           4
    16       58           3
    16       67           0
    16       70           1
    16       83           2
    16       86           1
    16       93           2
    17       10           0
    17       19           1
    17       37           2
    17       42           0
    17       52           4
    17       53           3
    17       75           4
    17       79           2
    17       84           1
    17       90           0
    18       13           0
    18       17           1
    18       24           0
    18       33           4
    18       52           3
    18       76           2
    18       78           3
    18       90           3
    18       98           4
    18      100           2
    19        4           4
    19        5           1
    19        8           1
    19       75           0
    19       78           2
    19       79           3
    19       86           1
    19       95           2
    19       96           4
    19       97           2
    20       12           4
    20       16           0
    20       21           3
    20       30           2
    20       37           1
    20       39           1
    20       51           2
    20       66           1
    20       68           0
    20       83           3
    21        1           3
    21        6           4
    21       39           3
    21       40           1
    21       55           2
    21       61           1
    21       70           0
    21       79           1
    21       84           3
    21       97           1
    22       18           4
    22       27           0
    22       30           3
    22       48           3
    22       49           0
    22       61           4
    22       64           0
    22       86           3
    22       89           2
    22       97           4
    23        2           3
    23       20           1
    23       33           3
    23       38           3
    23       49           2
    23       54           3
    23       62           4
    23       82           3
    23       95           1
    23       97           0
    24       24           0
    24       27           3
    24       31           0
    24       37           4
    24       50           0
    24       67           3
    24       73           2
    24       82           3
    24       89           3
    24       95           2
    25        6           2
    25       11           1
    25       21           3
    25       42           0
    25       60           0
    25       63           0
    25       75           2
    25       80           0
    25       93           3
    25       94           0
    26       17           0
    26       22           0
    26       46           3
    26       47           4
    26       51           1
    26       52           3
    26       59           1
    26       61           1
    26       80           2
    26       93           0
    27       18           2
    27       26           3
    27       40           3
    27       48           1
    27       50           4
    27       74           0
    27       76           3
    27       79           3
    27       91           0
    27       93           0
    28       11           2
    28       17           0
    28       22           4
    28       41           1
    28       44           2
    28       55           0
    28       60           1
    28       62           2
    28       79           4
    28       86           1
    29        4           3
    29        5           2
    29        9           1
    29       12           1
    29       18           2
    29       21           3
    29       51           3
    29       65           1
    29       66           0
    29       75           1
    30        8           2
    30       13           0
    30       14           3
    30       20           1
    30       24           3
    30       31           4
    30       38           4
    30       49           0
    30       73           4
    30       87           4
    31        2           3
    31        5           0
    31       11           1
    31       16           1
    31       18           1
    31       31           2
    31       43           4
    31       72           4
    31       92           2
    31      100           3
    32       17           0
    32       27           3
    32       33           3
    32       43           2
    32       48           0
    32       61           4
    32       83           0
    32       89           1
    32       93           3
    32       96           3
    33        2           1
    33        4           0
    33        7           0
    33       12           4
    33       13           0
    33       45           0
    33       51           0
    33       61           0
    33       63           4
    33       73           3
    34       18           2
    34       28           2
    34       29           3
    34       34           4
    34       58           2
    34       59           3
    34       70           0
    34       73           0
    34       74           0
    34       83           4
    35       25           0
    35       28           2
    35       43           3
    35       45           2
    35       62           2
    35       63           4
    35       82           4
    35       84           2
    35       86           0
    35      100           4
    36        3           2
    36        6           0
    36       40           2
    36       58           0
    36       66           0
    36       77           2
    36       80           4
    36       84           1
    36       87           2
    36       98           0
    37        2           3
    37       15           0
    37       17           2
    37       30           2
    37       42           2
    37       72           1
    37       80           0
    37       93           0
    37       94           2
    37       96           1
    38        3           3
    38       19           2
    38       27           3
    38       38           0
    38       66           4
    38       70           4
    38       79           0
    38       82           2
    38       87           0
    38       96           2
    39        1           4
    39       27           2
    39       42           0
    39       51           0
    39       54           4
    39       60           0
    39       62           3
    39       67           1
    39       78           3
    39       88           2
    40       13           3
    40       16           3
    40       42           2
    40       48           2
    40       51           3
    40       68           1
    40       71           0
    40       90           3
    40       92           1
    40       98           3
    41        5           4
    41       12           0
    41       14           0
    41       18           2
    41       19           0
    41       50           2
    41       51           3
    41       66           1
    41       81           0
    41       94           1
    42        3           4
    42        7           1
    42       10           0
    42       21           2
    42       44           1
    42       65           2
    42       67           4
    42       70           4
    42       87           4
    42      100           2
    43       14           3
    43       15           2
    43       33           1
    43       44           0
    43       57           2
    43       61           1
    43       67           2
    43       75           3
    43       86           0
    43       96           0
    44        5           4
    44        6           3
    44       23           1
    44       25           3
    44       37           3
    44       53           3
    44       61           4
    44       74           2
    44       75           1
    44       78           4
    45       12           1
    45       16           4
    45       28           4
    45       49           1
    45       50           1
    45       55           3
    45       76           3
    45       82           1
    45       87           3
    45       94           0
    46        1           4
    46        5           3
    46       36           0
    46       45           3
    46       50           1
    46       68           4
    46       79           0
    46       80           2
    46       82           0
    46       87           3
    47        2           2
    47       23           2
    47       31           0
    47       32           4
    47       36           1
    47       38           3
    47       43           2
    47       50           4
    47       55           4
    47       79           0
    48       22           1
    48       33           3
    48       37           0
    48       55           1
    48       72           3
    48       74           4
    48       75           2
    48       77           3
    48       78           0
    48       92           3
    49       23           1
    49       35           1
    49       36           4
    49       51           0
    49       52           1
    49       70           0
    49       75           2
    49       92           1
    49       98           4
    49       99           2
    50        4           0
    50        6           3
    50       28           1
    50       29           1
    50       39           2
    50       41           2
    50       59           2
    50       67           2
    50       73           0
    50       97           4
    51       11           2
    51       16           1
    51       27           4
    51       36           1
    51       63           0
    51       64           4
    51       70           1
    51       71           2
    51       85           4
    51      100           2
    52        6           1
    52       20           3
    52       23           4
    52       25           3
    52       31           2
    52       43           4
    52       62           4
    52       69           0
    52       71           3
    52       80           0
    53        3           4
    53        5           1
    53       10           2
    53       16           0
    53       24           3
    53       39           1
    53       40           1
    53       51           1
    53       68           3
    53       84           4
    54        3           2
    54       18           3
    54       26           0
    54       27           0
    54       47           1
    54       63           4
    54       69           1
    54       82           3
    54       96           4
    54       97           2
    55       17           4
    55       21           2
    55       36           2
    55       48           1
    55       56           3
    55       60           3
    55       82           1
    55       85           1
    55       87           4
    55       89           3
    56       33           4
    56       34           4
    56       50           2
    56       53           2
    56       68           4
    56       76           1
    56       81           1
    56       88           0
    56       95           3
    56      100           4
    57        3           3
    57       12           3
    57       42           0
    57       47           4
    57       54           0
    57       65           2
    57       69           3
    57       75           3
    57       87           1
    57       94           4
    58       15           3
    58       19           2
    58       30           3
    58       62           0
    58       66           2
    58       85           2
    58       87           4
    58       90           0
    58       95           0
    58       96           0
    59        3           3
    59        6           3
    59       29           4
    59       40           2
    59       43           2
    59       66           1
    59       72           3
    59       73           2
    59       75           0
    59       96           2
    60        8           0
    60       25           4
    60       30           4
    60       36           4
    60       39           4
    60       42           0
    60       59           4
    60       60           0
    60       92           0
    60      100           1
    61        7           2
    61        8           3
    61       16           4
    61       28           0
    61       29           4
    61       41           1
    61       51           2
    61       60           1
    61       69           2
    61       75           4
    62        8           4
    62       31           4
    62       38           2
    62       39           3
    62       50           0
    62       59           4
    62       61           1
    62       64           4
    62       71           1
    62       77           1
    63        4           1
    63        7           4
    63        8           2
    63       18           3
    63       22           1
    63       37           4
    63       57           4
    63       65           1
    63       82           3
    63       99           4
    64       10           4
    64       18           2
    64       30           3
    64       37           2
    64       46           4
    64       48           0
    64       57           0
    64       67           1
    64       72           2
    64       95           1
    65        2           4
    65        7           2
    65       13           1
    65       17           0
    65       18           2
    65       19           0
    65       37           0
    65       60           2
    65       78           4
    65       83           2
    66        4           1
    66       27           1
    66       34           0
    66       42           3
    66       51           4
    66       66           3
    66       72           3
    66       78           0
    66       83           1
    66       89           1
    67        9           3
    67       24           2
    67       28           3
    67       40           0
    67       47           2
    67       48           3
    67       50           3
    67       65           0
    67       69           2
    67       73           2
    68        2           3
    68        7           2
    68       32           2
    68       40           3
    68       64           4
    68       71           1
    68       76           4
    68       83           3
    68       85           1
    68       87           2
    69        6           3
    69       11           3
    69       34           4
    69       35           3
    69       37           0
    69       59           1
    69       71           0
    69       82           3
    69       89           3
    69       92           4
    70        4           3
    70        6           0
    70       14           4
    70       25           1
    70       35           2
    70       57           4
    70       64           1
    70       67           0
    70       84           2
    70       89           0
    71        5           1
    71        8           1
    71       19           0
    71       20           0
    71       29           1
    71       35           2
    71       44           4
    71       47           1
    71       79           0
    71       89           0
    72        3           0
    72       22           2
    72       23           3
    72       32           4
    72       33           1
    72       43           2
    72       47           4
    72       82           2
    72       91           0
    72      100           2
    73        9           4
    73       11           2
    73       26           0
    73       34           2
    73       43           3
    73       59           3
    73       60           2
    73       82           3
    73       96           3
    73       97           4
    74       21           4
    74       31           4
    74       36           4
    74       54           1
    74       56           0
    74       57           0
    74       61           1
    74       65           2
    74       74           2
    74       81           4
    75        1           2
    75        5           2
    75       30           3
    75       54           4
    75       62           0
    75       63           3
    75       74           4
    75       76           0
    75       93           3
    75       94           3
    76        2           1
    76       13           3
    76       20           3
    76       39           4
    76       50           0
    76       55           0
    76       71           2
    76       86           1
    76       87           0
    76       96           1
    77        1           0
    77       22           0
    77       36           2
    77       49           3
    77       55           0
    77       57           2
    77       62           1
    77       65           2
    77       71           4
    77       85           3
    78       26           4
    78       31           2
    78       35           4
    78       50           2
    78       54           2
    78       56           1
    78       62           3
    78       71           1
    78       86           4
    78       96           0
    79        4           2
    79        9           0
    79       17           0
    79       37           1
    79       38           2
    79       56           2
    79       69           1
    79       77           3
    79       79           3
    79       99           4
    80        2           4
    80       25           4
    80       27           2
    80       28           4
    80       47           0
    80       68           1
    80       70           2
    80       72           0
    80       76           3
    80       94           3
    81       21           4
    81       24           4
    81       29           2
    81       43           2
    81       69           4
    81       71           3
    81       76           2
    81       96           2
    81       99           1
    81      100           4
    82       12           1
    82       21           2
    82       23           2
    82       26           4
    82       35           0
    82       51           1
    82       61           2
    82       82           4
    82       88           4
    82       89           1
    83        6           4
    83       14           1
    83       22           4
    83       27           0
    83       45           1
    83       56           3
    83       60           1
    83       76           0
    83       80           0
    83       94           0
    84       12           1
    84       18           0
    84       20           0
    84       24           4
    84       27           3
    84       39           1
    84       41           2
    84       75           1
    84       87           3
    84      100           3
    85       19           1
    85       39           2
    85       44           3
    85       54           3
    85       55           4
    85       60           1
    85       73           4
    85       81           2
    85       87           1
    85       88           2
    86        3           2
    86        4           1
    86       14           1
    86       20           1
    86       21           0
    86       33           1
    86       34           0
    86       37           0
    86       46           2
    86       58           4
    87       12           2
    87       14           2
    87       16           3
    87       30           3
    87       41           1
    87       52           3
    87       53           4
    87       57           4
    87       64           2
    87       86           1
    88        2           1
    88        3           4
    88       18           4
    88       33           0
    88       34           1
    88       42           4
    88       52           1
    88       62           1
    88       65           4
    88      100           3
    89        3           3
    89       11           2
    89       20           3
    89       45           4
    89       55           2
    89       56           4
    89       59           3
    89       63           2
    89       64           1
    89       89           4
    90        1           2
    90       12           3
    90       14           4
    90       25           4
    90       40           2
    90       65           1
    90       79           3
    90       83           2
    90       85           1
    90       86           4
    91        5           1
    91        9           3
    91       21           0
    91       31           1
    91       46           3
    91       52           1
    91       63           3
    91       88           3
    91       94           0
    91       96           4
    92        6           3
    92       51           4
    92       64           2
    92       66           3
    92       69           4
    92       70           2
    92       88           1
    92       89           3
    92       93           0
    92       94           3
    93        6           1
    93        8           1
    93       10           2
    93       16           0
    93       27           2
    93       53           0
    93       77           2
    93       87           2
    93       93           1
    93       94           0
    94        2           3
    94       22           3
    94       25           0
    94       33           2
    94       39           4
    94       69           4
    94       74           3
    94       77           4
    94       87           0
    94       93           1
    95        1           1
    95        3           1
    95       26           4
    95       33           2
    95       55           0
    95       57           2
    95       68           2
    95       69           4
    95       95           4
    95      100           4
    96        8           3
    96       22           1
    96       36           4
    96       65           0
    96       68           3
    96       83           3
    96       86           0
    96       90           4
    96       92           0
    96       99           3
    97        6           4
    97        7           1
    97        8           2
    97       17           3
    97       20           0
    97       39           2
    97       62           4
    97       86           1
    97       97           2
    97       99           1
    98        2           4
    98        9           2
    98       25           0
    98       31           4
    98       35           4
    98       52           0
    98       55           0
    98       60           0
    98       61           3
    98       74           3
    99        9           1
    99       26           4
    99       31           3
    99       34           2
    99       49           1
    99       58           0
    99       85           4
    99       86           0
    99       88           4
    99       92           0
   100        1           0
   100        9           1
   100       11           4
   100       21           3
   100       40           3
   100       41           2
   100       53           3
   100       54           0
   100       57           4
   100      100           4
